p cnf 964 2475
51 -2 -1 0
-51 2 0
-51 1 0
52 -51 -3 0
-52 51 0
-52 3 0
53 -5 -697 0
-53 5 0
-53 697 0
54 -53 -698 0
-54 53 0
-54 698 0
55 -699 -700 0
-55 699 0
-55 700 0
56 -8 -701 0
-56 8 0
-56 701 0
57 -56 -702 0
-57 56 0
-57 702 0
58 -703 -55 0
-58 703 0
-58 55 0
59 -11 -10 0
-59 11 0
-59 10 0
60 -59 -704 0
-60 59 0
-60 704 0
61 -705 -58 0
-61 705 0
-61 58 0
62 -706 -13 0
-62 706 0
-62 13 0
63 -62 -15 0
-63 62 0
-63 15 0
64 -707 -61 0
-64 707 0
-64 61 0
65 -708 -16 0
-65 708 0
-65 16 0
66 -65 -709 0
-66 65 0
-66 709 0
67 -710 -64 0
-67 710 0
-67 64 0
68 -711 -712 0
-68 711 0
-68 712 0
69 -68 -21 0
-69 68 0
-69 21 0
70 -713 -67 0
-70 713 0
-70 67 0
71 -714 -21 0
-71 714 0
-71 21 0
72 -71 -11 0
-72 71 0
-72 11 0
73 -715 -70 0
-73 715 0
-73 70 0
74 -716 -717 0
-74 716 0
-74 717 0
75 -74 -714 0
-75 74 0
-75 714 0
76 -718 -73 0
-76 718 0
-76 73 0
77 -719 -17 0
-77 719 0
-77 17 0
78 -77 -720 0
-78 77 0
-78 720 0
79 -721 -76 0
-79 721 0
-79 76 0
80 -722 -27 0
-80 722 0
-80 27 0
81 -80 -702 0
-81 80 0
-81 702 0
82 -723 -79 0
-82 723 0
-82 79 0
83 -30 -724 0
-83 30 0
-83 724 0
84 -83 -714 0
-84 83 0
-84 714 0
85 -725 -82 0
-85 725 0
-85 82 0
86 -726 -697 0
-86 726 0
-86 697 0
87 -86 -9 0
-87 86 0
-87 9 0
88 -727 -85 0
-88 727 0
-88 85 0
89 -717 -15 0
-89 717 0
-89 15 0
90 -89 -5 0
-90 89 0
-90 5 0
91 -728 -88 0
-91 728 0
-91 88 0
92 -729 -697 0
-92 729 0
-92 697 0
93 -92 -32 0
-93 92 0
-93 32 0
94 -730 -91 0
-94 730 0
-94 91 0
95 -711 -16 0
-95 711 0
-95 16 0
96 -95 -731 0
-96 95 0
-96 731 0
97 -732 -94 0
-97 732 0
-97 94 0
98 -733 -7 0
-98 733 0
-98 7 0
99 -98 -734 0
-99 98 0
-99 734 0
100 -735 -97 0
-100 735 0
-100 97 0
101 -15 -736 0
-101 15 0
-101 736 0
102 -101 -6 0
-102 101 0
-102 6 0
103 -737 -100 0
-103 737 0
-103 100 0
104 -738 -719 0
-104 738 0
-104 719 0
105 -104 -36 0
-105 104 0
-105 36 0
106 -739 -103 0
-106 739 0
-106 103 0
107 -36 -15 0
-107 36 0
-107 15 0
108 -107 -714 0
-108 107 0
-108 714 0
109 -740 -106 0
-109 740 0
-109 106 0
110 -32 -6 0
-110 32 0
-110 6 0
111 -110 -2 0
-111 110 0
-111 2 0
112 -741 -109 0
-112 741 0
-112 109 0
113 -37 -722 0
-113 37 0
-113 722 0
114 -113 -731 0
-114 113 0
-114 731 0
115 -742 -112 0
-115 742 0
-115 112 0
116 -26 -712 0
-116 26 0
-116 712 0
117 -116 -38 0
-117 116 0
-117 38 0
118 -743 -115 0
-118 743 0
-118 115 0
119 -39 -12 0
-119 39 0
-119 12 0
120 -119 -18 0
-120 119 0
-120 18 0
121 -744 -118 0
-121 744 0
-121 118 0
122 -745 -697 0
-122 745 0
-122 697 0
123 -122 -746 0
-123 122 0
-123 746 0
124 -747 -121 0
-124 747 0
-124 121 0
125 -41 -734 0
-125 41 0
-125 734 0
126 -125 -9 0
-126 125 0
-126 9 0
127 -748 -124 0
-127 748 0
-127 124 0
128 -35 -706 0
-128 35 0
-128 706 0
129 -128 -716 0
-129 128 0
-129 716 0
130 -749 -127 0
-130 749 0
-130 127 0
131 -15 -14 0
-131 15 0
-131 14 0
132 -131 -714 0
-132 131 0
-132 714 0
133 -750 -130 0
-133 750 0
-133 130 0
134 -29 -751 0
-134 29 0
-134 751 0
135 -134 -704 0
-135 134 0
-135 704 0
136 -752 -133 0
-136 752 0
-136 133 0
137 -31 -753 0
-137 31 0
-137 753 0
138 -137 -754 0
-138 137 0
-138 754 0
139 -755 -136 0
-139 755 0
-139 136 0
140 -756 -7 0
-140 756 0
-140 7 0
141 -140 -43 0
-141 140 0
-141 43 0
142 -757 -139 0
-142 757 0
-142 139 0
143 -729 -758 0
-143 729 0
-143 758 0
144 -143 -8 0
-144 143 0
-144 8 0
145 -759 -142 0
-145 759 0
-145 142 0
146 -20 -706 0
-146 20 0
-146 706 0
147 -146 -44 0
-147 146 0
-147 44 0
148 -760 -145 0
-148 760 0
-148 145 0
149 -733 -30 0
-149 733 0
-149 30 0
150 -149 -42 0
-150 149 0
-150 42 0
151 -761 -148 0
-151 761 0
-151 148 0
152 -45 -701 0
-152 45 0
-152 701 0
153 -152 -12 0
-153 152 0
-153 12 0
154 -762 -151 0
-154 762 0
-154 151 0
155 -763 -704 0
-155 763 0
-155 704 0
156 -155 -42 0
-156 155 0
-156 42 0
157 -764 -154 0
-157 764 0
-157 154 0
158 -25 -712 0
-158 25 0
-158 712 0
159 -158 -704 0
-159 158 0
-159 704 0
160 -765 -157 0
-160 765 0
-160 157 0
161 -766 -34 0
-161 766 0
-161 34 0
162 -161 -767 0
-162 161 0
-162 767 0
163 -768 -160 0
-163 768 0
-163 160 0
164 -724 -769 0
-164 724 0
-164 769 0
165 -164 -709 0
-165 164 0
-165 709 0
166 -770 -163 0
-166 770 0
-166 163 0
167 -37 -704 0
-167 37 0
-167 704 0
168 -167 -758 0
-168 167 0
-168 758 0
169 -771 -166 0
-169 771 0
-169 166 0
170 -46 -733 0
-170 46 0
-170 733 0
171 -170 -701 0
-171 170 0
-171 701 0
172 -772 -169 0
-172 772 0
-172 169 0
173 -47 -31 0
-173 47 0
-173 31 0
174 -173 -711 0
-174 173 0
-174 711 0
175 -773 -172 0
-175 773 0
-175 172 0
176 -774 -31 0
-176 774 0
-176 31 0
177 -176 -30 0
-177 176 0
-177 30 0
178 -775 -175 0
-178 775 0
-178 175 0
179 -17 -726 0
-179 17 0
-179 726 0
180 -179 -41 0
-180 179 0
-180 41 0
181 -776 -178 0
-181 776 0
-181 178 0
182 -774 -10 0
-182 774 0
-182 10 0
183 -182 -766 0
-183 182 0
-183 766 0
184 -777 -181 0
-184 777 0
-184 181 0
185 -698 -697 0
-185 698 0
-185 697 0
186 -185 -40 0
-186 185 0
-186 40 0
187 -778 -184 0
-187 778 0
-187 184 0
188 -711 -751 0
-188 711 0
-188 751 0
189 -188 -42 0
-189 188 0
-189 42 0
190 -779 -187 0
-190 779 0
-190 187 0
191 -22 -706 0
-191 22 0
-191 706 0
192 -191 -28 0
-192 191 0
-192 28 0
193 -780 -190 0
-193 780 0
-193 190 0
194 -40 -717 0
-194 40 0
-194 717 0
195 -194 -781 0
-195 194 0
-195 781 0
196 -782 -193 0
-196 782 0
-196 193 0
197 -783 -13 0
-197 783 0
-197 13 0
198 -197 -784 0
-198 197 0
-198 784 0
199 -785 -196 0
-199 785 0
-199 196 0
200 -729 -704 0
-200 729 0
-200 704 0
201 -200 -709 0
-201 200 0
-201 709 0
202 -786 -199 0
-202 786 0
-202 199 0
203 -45 -22 0
-203 45 0
-203 22 0
204 -203 -28 0
-204 203 0
-204 28 0
205 -787 -202 0
-205 787 0
-205 202 0
206 -29 -27 0
-206 29 0
-206 27 0
207 -206 -6 0
-207 206 0
-207 6 0
208 -788 -205 0
-208 788 0
-208 205 0
209 -49 -10 0
-209 49 0
-209 10 0
210 -209 -42 0
-210 209 0
-210 42 0
211 -789 -208 0
-211 789 0
-211 208 0
212 -39 -38 0
-212 39 0
-212 38 0
213 -212 -754 0
-213 212 0
-213 754 0
214 -790 -211 0
-214 790 0
-214 211 0
215 -46 -717 0
-215 46 0
-215 717 0
216 -215 -791 0
-216 215 0
-216 791 0
217 -792 -214 0
-217 792 0
-217 214 0
218 -46 -16 0
-218 46 0
-218 16 0
219 -218 -50 0
-219 218 0
-219 50 0
220 -793 -217 0
-220 793 0
-220 217 0
221 -794 -20 0
-221 794 0
-221 20 0
222 -221 -44 0
-222 221 0
-222 44 0
223 -795 -220 0
-223 795 0
-223 220 0
224 -31 -708 0
-224 31 0
-224 708 0
225 -224 -1 0
-225 224 0
-225 1 0
226 -796 -223 0
-226 796 0
-226 223 0
227 -28 -736 0
-227 28 0
-227 736 0
228 -227 -40 0
-228 227 0
-228 40 0
229 -797 -226 0
-229 797 0
-229 226 0
230 -119 -756 0
-230 119 0
-230 756 0
231 -798 -229 0
-231 798 0
-231 229 0
232 -799 -706 0
-232 799 0
-232 706 0
233 -232 -33 0
-233 232 0
-233 33 0
234 -800 -231 0
-234 800 0
-234 231 0
235 -47 -13 0
-235 47 0
-235 13 0
236 -235 -801 0
-236 235 0
-236 801 0
237 -802 -234 0
-237 802 0
-237 234 0
238 -39 -734 0
-238 39 0
-238 734 0
239 -238 -43 0
-239 238 0
-239 43 0
240 -803 -237 0
-240 803 0
-240 237 0
241 -804 -799 0
-241 804 0
-241 799 0
242 -241 -714 0
-242 241 0
-242 714 0
243 -805 -240 0
-243 805 0
-243 240 0
244 -25 -758 0
-244 25 0
-244 758 0
245 -244 -41 0
-245 244 0
-245 41 0
246 -806 -243 0
-246 806 0
-246 243 0
247 -47 -697 0
-247 47 0
-247 697 0
248 -247 -726 0
-248 247 0
-248 726 0
249 -807 -246 0
-249 807 0
-249 246 0
250 -39 -763 0
-250 39 0
-250 763 0
251 -250 -43 0
-251 250 0
-251 43 0
252 -808 -249 0
-252 808 0
-252 249 0
253 -37 -724 0
-253 37 0
-253 724 0
254 -253 -11 0
-254 253 0
-254 11 0
255 -809 -252 0
-255 809 0
-255 252 0
256 -46 -7 0
-256 46 0
-256 7 0
257 -256 -720 0
-257 256 0
-257 720 0
258 -810 -255 0
-258 810 0
-258 255 0
259 -811 -812 0
-259 811 0
-259 812 0
260 -259 -50 0
-260 259 0
-260 50 0
261 -813 -258 0
-261 813 0
-261 258 0
262 -774 -717 0
-262 774 0
-262 717 0
263 -262 -714 0
-263 262 0
-263 714 0
264 -814 -261 0
-264 814 0
-264 261 0
265 -738 -734 0
-265 738 0
-265 734 0
266 -265 -40 0
-266 265 0
-266 40 0
267 -815 -264 0
-267 815 0
-267 264 0
268 -708 -5 0
-268 708 0
-268 5 0
269 -268 -42 0
-269 268 0
-269 42 0
270 -816 -267 0
-270 816 0
-270 267 0
271 -48 -731 0
-271 48 0
-271 731 0
272 -271 -41 0
-272 271 0
-272 41 0
273 -817 -270 0
-273 817 0
-273 270 0
274 -28 -784 0
-274 28 0
-274 784 0
275 -274 -2 0
-275 274 0
-275 2 0
276 -818 -273 0
-276 818 0
-276 273 0
277 -753 -19 0
-277 753 0
-277 19 0
278 -277 -14 0
-278 277 0
-278 14 0
279 -819 -276 0
-279 819 0
-279 276 0
280 -46 -10 0
-280 46 0
-280 10 0
281 -280 -767 0
-281 280 0
-281 767 0
282 -820 -279 0
-282 820 0
-282 279 0
283 -26 -711 0
-283 26 0
-283 711 0
284 -283 -8 0
-284 283 0
-284 8 0
285 -821 -282 0
-285 821 0
-285 282 0
286 -17 -784 0
-286 17 0
-286 784 0
287 -286 -731 0
-287 286 0
-287 731 0
288 -822 -285 0
-288 822 0
-288 285 0
289 -40 -14 0
-289 40 0
-289 14 0
290 -289 -41 0
-290 289 0
-290 41 0
291 -823 -288 0
-291 823 0
-291 288 0
292 -40 -23 0
-292 40 0
-292 23 0
293 -292 -726 0
-293 292 0
-293 726 0
294 -824 -291 0
-294 824 0
-294 291 0
295 -197 -714 0
-295 197 0
-295 714 0
296 -825 -294 0
-296 825 0
-296 294 0
297 -25 -16 0
-297 25 0
-297 16 0
298 -297 -734 0
-298 297 0
-298 734 0
299 -826 -296 0
-299 826 0
-299 296 0
300 -48 -717 0
-300 48 0
-300 717 0
301 -300 -714 0
-301 300 0
-301 714 0
302 -827 -299 0
-302 827 0
-302 299 0
303 -19 -784 0
-303 19 0
-303 784 0
304 -303 -40 0
-304 303 0
-304 40 0
305 -828 -302 0
-305 828 0
-305 302 0
306 -48 -712 0
-306 48 0
-306 712 0
307 -306 -794 0
-307 306 0
-307 794 0
308 -829 -305 0
-308 829 0
-308 305 0
309 -830 -34 0
-309 830 0
-309 34 0
310 -309 -767 0
-310 309 0
-310 767 0
311 -831 -308 0
-311 831 0
-311 308 0
312 -714 -16 0
-312 714 0
-312 16 0
313 -312 -40 0
-313 312 0
-313 40 0
314 -832 -311 0
-314 832 0
-314 311 0
315 -25 -14 0
-315 25 0
-315 14 0
316 -315 -11 0
-316 315 0
-316 11 0
317 -833 -314 0
-317 833 0
-317 314 0
318 -717 -812 0
-318 717 0
-318 812 0
319 -318 -801 0
-319 318 0
-319 801 0
320 -834 -317 0
-320 834 0
-320 317 0
321 -20 -10 0
-321 20 0
-321 10 0
322 -321 -41 0
-322 321 0
-322 41 0
323 -835 -320 0
-323 835 0
-323 320 0
324 -722 -3 0
-324 722 0
-324 3 0
325 -324 -766 0
-325 324 0
-325 766 0
326 -836 -323 0
-326 836 0
-326 323 0
327 -48 -25 0
-327 48 0
-327 25 0
328 -327 -717 0
-328 327 0
-328 717 0
329 -837 -326 0
-329 837 0
-329 326 0
330 -48 -12 0
-330 48 0
-330 12 0
331 -330 -838 0
-331 330 0
-331 838 0
332 -839 -329 0
-332 839 0
-332 329 0
333 -729 -7 0
-333 729 0
-333 7 0
334 -333 -840 0
-334 333 0
-334 840 0
335 -841 -332 0
-335 841 0
-335 332 0
336 -838 -842 0
-336 838 0
-336 842 0
337 -336 -758 0
-337 336 0
-337 758 0
338 -843 -335 0
-338 843 0
-338 335 0
339 -719 -736 0
-339 719 0
-339 736 0
340 -339 -767 0
-340 339 0
-340 767 0
341 -844 -338 0
-341 844 0
-341 338 0
342 -34 -724 0
-342 34 0
-342 724 0
343 -342 -767 0
-343 342 0
-343 767 0
344 -845 -341 0
-344 845 0
-344 341 0
345 -774 -804 0
-345 774 0
-345 804 0
346 -345 -28 0
-346 345 0
-346 28 0
347 -846 -344 0
-347 846 0
-347 344 0
348 -738 -784 0
-348 738 0
-348 784 0
349 -348 -11 0
-349 348 0
-349 11 0
350 -847 -347 0
-350 847 0
-350 347 0
351 -811 -738 0
-351 811 0
-351 738 0
352 -351 -781 0
-352 351 0
-352 781 0
353 -848 -350 0
-353 848 0
-353 350 0
354 -45 -736 0
-354 45 0
-354 736 0
355 -354 -791 0
-355 354 0
-355 791 0
356 -849 -353 0
-356 849 0
-356 353 0
357 -20 -751 0
-357 20 0
-357 751 0
358 -357 -709 0
-358 357 0
-358 709 0
359 -850 -356 0
-359 850 0
-359 356 0
360 -738 -753 0
-360 738 0
-360 753 0
361 -360 -11 0
-361 360 0
-361 11 0
362 -851 -359 0
-362 851 0
-362 359 0
363 -774 -25 0
-363 774 0
-363 25 0
364 -363 -21 0
-364 363 0
-364 21 0
365 -852 -362 0
-365 852 0
-365 362 0
366 -712 -745 0
-366 712 0
-366 745 0
367 -366 -766 0
-367 366 0
-367 766 0
368 -853 -365 0
-368 853 0
-368 365 0
369 -29 -4 0
-369 29 0
-369 4 0
370 -369 -754 0
-370 369 0
-370 754 0
371 -854 -368 0
-371 854 0
-371 368 0
372 -48 -733 0
-372 48 0
-372 733 0
373 -372 -9 0
-373 372 0
-373 9 0
374 -855 -371 0
-374 855 0
-374 371 0
375 -48 -18 0
-375 48 0
-375 18 0
376 -375 -754 0
-376 375 0
-376 754 0
377 -856 -374 0
-377 856 0
-377 374 0
378 -736 -769 0
-378 736 0
-378 769 0
379 -378 -18 0
-379 378 0
-379 18 0
380 -857 -377 0
-380 857 0
-380 377 0
381 -149 -767 0
-381 149 0
-381 767 0
382 -858 -380 0
-382 858 0
-382 380 0
383 -733 -4 0
-383 733 0
-383 4 0
384 -383 -702 0
-384 383 0
-384 702 0
385 -859 -382 0
-385 859 0
-385 382 0
386 -794 -717 0
-386 794 0
-386 717 0
387 -386 -756 0
-387 386 0
-387 756 0
388 -860 -385 0
-388 860 0
-388 385 0
389 -701 -1 0
-389 701 0
-389 1 0
390 -389 -50 0
-390 389 0
-390 50 0
391 -861 -388 0
-391 861 0
-391 388 0
392 -26 -701 0
-392 26 0
-392 701 0
393 -392 -781 0
-393 392 0
-393 781 0
394 -862 -391 0
-394 862 0
-394 391 0
395 -717 -758 0
-395 717 0
-395 758 0
396 -395 -40 0
-396 395 0
-396 40 0
397 -863 -394 0
-397 863 0
-397 394 0
398 -256 -39 0
-398 256 0
-398 39 0
399 -864 -397 0
-399 864 0
-399 397 0
400 -716 -706 0
-400 716 0
-400 706 0
401 -400 -746 0
-401 400 0
-401 746 0
402 -865 -399 0
-402 865 0
-402 399 0
403 -23 -21 0
-403 23 0
-403 21 0
404 -403 -840 0
-404 403 0
-404 840 0
405 -866 -402 0
-405 866 0
-405 402 0
406 -783 -697 0
-406 783 0
-406 697 0
407 -406 -26 0
-407 406 0
-407 26 0
408 -867 -405 0
-408 867 0
-408 405 0
409 -24 -711 0
-409 24 0
-409 711 0
410 -409 -708 0
-410 409 0
-410 708 0
411 -868 -408 0
-411 868 0
-411 408 0
412 -731 -704 0
-412 731 0
-412 704 0
413 -412 -40 0
-413 412 0
-413 40 0
414 -869 -411 0
-414 869 0
-414 411 0
415 -811 -10 0
-415 811 0
-415 10 0
416 -415 -22 0
-416 415 0
-416 22 0
417 -870 -414 0
-417 870 0
-417 414 0
418 -738 -7 0
-418 738 0
-418 7 0
419 -418 -1 0
-419 418 0
-419 1 0
420 -871 -417 0
-420 871 0
-420 417 0
421 -35 -799 0
-421 35 0
-421 799 0
422 -421 -36 0
-422 421 0
-422 36 0
423 -872 -420 0
-423 872 0
-423 420 0
424 -838 -733 0
-424 838 0
-424 733 0
425 -424 -781 0
-425 424 0
-425 781 0
426 -873 -423 0
-426 873 0
-426 423 0
427 -49 -724 0
-427 49 0
-427 724 0
428 -427 -8 0
-428 427 0
-428 8 0
429 -874 -426 0
-429 874 0
-429 426 0
430 -35 -10 0
-430 35 0
-430 10 0
431 -430 -791 0
-431 430 0
-431 791 0
432 -875 -429 0
-432 875 0
-432 429 0
433 -794 -24 0
-433 794 0
-433 24 0
434 -433 -11 0
-434 433 0
-434 11 0
435 -876 -432 0
-435 876 0
-435 432 0
436 -24 -14 0
-436 24 0
-436 14 0
437 -436 -711 0
-437 436 0
-437 711 0
438 -877 -435 0
-438 877 0
-438 435 0
439 -47 -25 0
-439 47 0
-439 25 0
440 -439 -8 0
-440 439 0
-440 8 0
441 -878 -438 0
-441 878 0
-441 438 0
442 -794 -769 0
-442 794 0
-442 769 0
443 -442 -758 0
-443 442 0
-443 758 0
444 -879 -441 0
-444 879 0
-444 441 0
445 -47 -711 0
-445 47 0
-445 711 0
446 -445 -50 0
-446 445 0
-446 50 0
447 -880 -444 0
-447 880 0
-447 444 0
448 -42 -698 0
-448 42 0
-448 698 0
449 -448 -702 0
-449 448 0
-449 702 0
450 -881 -447 0
-450 881 0
-450 447 0
451 -119 -38 0
-451 119 0
-451 38 0
452 -882 -450 0
-452 882 0
-452 450 0
453 -48 -791 0
-453 48 0
-453 791 0
454 -453 -17 0
-454 453 0
-454 17 0
455 -883 -452 0
-455 883 0
-455 452 0
456 -19 -1 0
-456 19 0
-456 1 0
457 -456 -781 0
-457 456 0
-457 781 0
458 -884 -455 0
-458 884 0
-458 455 0
459 -45 -23 0
-459 45 0
-459 23 0
460 -459 -838 0
-460 459 0
-460 838 0
461 -885 -458 0
-461 885 0
-461 458 0
462 -812 -734 0
-462 812 0
-462 734 0
463 -462 -840 0
-463 462 0
-463 840 0
464 -886 -461 0
-464 886 0
-464 461 0
465 -711 -708 0
-465 711 0
-465 708 0
466 -465 -43 0
-466 465 0
-466 43 0
467 -887 -464 0
-467 887 0
-467 464 0
468 -840 -811 0
-468 840 0
-468 811 0
469 -468 -767 0
-469 468 0
-469 767 0
470 -888 -467 0
-470 888 0
-470 467 0
471 -21 -784 0
-471 21 0
-471 784 0
472 -471 -26 0
-472 471 0
-472 26 0
473 -889 -470 0
-473 889 0
-473 470 0
474 -838 -11 0
-474 838 0
-474 11 0
475 -474 -720 0
-475 474 0
-475 720 0
476 -890 -473 0
-476 890 0
-476 473 0
477 -719 -745 0
-477 719 0
-477 745 0
478 -477 -804 0
-478 477 0
-478 804 0
479 -891 -476 0
-479 891 0
-479 476 0
480 -746 -706 0
-480 746 0
-480 706 0
481 -480 -767 0
-481 480 0
-481 767 0
482 -892 -479 0
-482 892 0
-482 479 0
483 -731 -712 0
-483 731 0
-483 712 0
484 -483 -38 0
-484 483 0
-484 38 0
485 -893 -482 0
-485 893 0
-485 482 0
486 -21 -769 0
-486 21 0
-486 769 0
487 -486 -709 0
-487 486 0
-487 709 0
488 -894 -485 0
-488 894 0
-488 485 0
489 -754 -763 0
-489 754 0
-489 763 0
490 -489 -702 0
-490 489 0
-490 702 0
491 -895 -488 0
-491 895 0
-491 488 0
492 -13 -5 0
-492 13 0
-492 5 0
493 -492 -11 0
-493 492 0
-493 11 0
494 -896 -491 0
-494 896 0
-494 491 0
495 -774 -12 0
-495 774 0
-495 12 0
496 -495 -1 0
-496 495 0
-496 1 0
497 -897 -494 0
-497 897 0
-497 494 0
498 -37 -10 0
-498 37 0
-498 10 0
499 -498 -801 0
-499 498 0
-499 801 0
500 -898 -497 0
-500 898 0
-500 497 0
501 -842 -26 0
-501 842 0
-501 26 0
502 -501 -698 0
-502 501 0
-502 698 0
503 -899 -500 0
-503 899 0
-503 500 0
504 -26 -21 0
-504 26 0
-504 21 0
505 -504 -746 0
-505 504 0
-505 746 0
506 -900 -503 0
-506 900 0
-506 503 0
507 -37 -720 0
-507 37 0
-507 720 0
508 -507 -702 0
-508 507 0
-508 702 0
509 -901 -506 0
-509 901 0
-509 506 0
510 -724 -14 0
-510 724 0
-510 14 0
511 -510 -15 0
-511 510 0
-511 15 0
512 -902 -509 0
-512 902 0
-512 509 0
513 -26 -714 0
-513 26 0
-513 714 0
514 -513 -41 0
-514 513 0
-514 41 0
515 -903 -512 0
-515 903 0
-515 512 0
516 -14 -1 0
-516 14 0
-516 1 0
517 -516 -49 0
-517 516 0
-517 49 0
518 -904 -515 0
-518 904 0
-518 515 0
519 -36 -13 0
-519 36 0
-519 13 0
520 -519 -43 0
-520 519 0
-520 43 0
521 -905 -518 0
-521 905 0
-521 518 0
522 -46 -17 0
-522 46 0
-522 17 0
523 -522 -838 0
-523 522 0
-523 838 0
524 -906 -521 0
-524 906 0
-524 521 0
525 -46 -19 0
-525 46 0
-525 19 0
526 -525 -716 0
-526 525 0
-526 716 0
527 -907 -524 0
-527 907 0
-527 524 0
528 -22 -711 0
-528 22 0
-528 711 0
529 -528 -8 0
-529 528 0
-529 8 0
530 -908 -527 0
-530 908 0
-530 527 0
531 -35 -784 0
-531 35 0
-531 784 0
532 -531 -704 0
-532 531 0
-532 704 0
533 -909 -530 0
-533 909 0
-533 530 0
534 -794 -34 0
-534 794 0
-534 34 0
535 -534 -709 0
-535 534 0
-535 709 0
536 -910 -533 0
-536 910 0
-536 533 0
537 -17 -1 0
-537 17 0
-537 1 0
538 -537 -838 0
-538 537 0
-538 838 0
539 -911 -536 0
-539 911 0
-539 536 0
540 -717 -751 0
-540 717 0
-540 751 0
541 -540 -22 0
-541 540 0
-541 22 0
542 -912 -539 0
-542 912 0
-542 539 0
543 -708 -706 0
-543 708 0
-543 706 0
544 -543 -704 0
-544 543 0
-544 704 0
545 -913 -542 0
-545 913 0
-545 542 0
546 -733 -11 0
-546 733 0
-546 11 0
547 -546 -801 0
-547 546 0
-547 801 0
548 -914 -545 0
-548 914 0
-548 545 0
549 -32 -15 0
-549 32 0
-549 15 0
550 -549 -28 0
-550 549 0
-550 28 0
551 -915 -548 0
-551 915 0
-551 548 0
552 -783 -812 0
-552 783 0
-552 812 0
553 -552 -21 0
-553 552 0
-553 21 0
554 -916 -551 0
-554 916 0
-554 551 0
555 -709 -701 0
-555 709 0
-555 701 0
556 -555 -26 0
-556 555 0
-556 26 0
557 -917 -554 0
-557 917 0
-557 554 0
558 -774 -736 0
-558 774 0
-558 736 0
559 -558 -767 0
-559 558 0
-559 767 0
560 -918 -557 0
-560 918 0
-560 557 0
561 -31 -26 0
-561 31 0
-561 26 0
562 -561 -722 0
-562 561 0
-562 722 0
563 -919 -560 0
-563 919 0
-563 560 0
564 -47 -8 0
-564 47 0
-564 8 0
565 -564 -754 0
-565 564 0
-565 754 0
566 -920 -563 0
-566 920 0
-566 563 0
567 -729 -708 0
-567 729 0
-567 708 0
568 -567 -1 0
-568 567 0
-568 1 0
569 -921 -566 0
-569 921 0
-569 566 0
570 -766 -15 0
-570 766 0
-570 15 0
571 -570 -44 0
-571 570 0
-571 44 0
572 -922 -569 0
-572 922 0
-572 569 0
573 -11 -3 0
-573 11 0
-573 3 0
574 -573 -781 0
-574 573 0
-574 781 0
575 -923 -572 0
-575 923 0
-575 572 0
576 -47 -19 0
-576 47 0
-576 19 0
577 -576 -28 0
-577 576 0
-577 28 0
578 -924 -575 0
-578 924 0
-578 575 0
579 -37 -25 0
-579 37 0
-579 25 0
580 -579 -714 0
-580 579 0
-580 714 0
581 -925 -578 0
-581 925 0
-581 578 0
582 -719 -716 0
-582 719 0
-582 716 0
583 -582 -38 0
-583 582 0
-583 38 0
584 -926 -581 0
-584 926 0
-584 581 0
585 -731 -724 0
-585 731 0
-585 724 0
586 -585 -801 0
-586 585 0
-586 801 0
587 -927 -584 0
-587 927 0
-587 584 0
588 -733 -719 0
-588 733 0
-588 719 0
589 -588 -698 0
-589 588 0
-589 698 0
590 -928 -587 0
-590 928 0
-590 587 0
591 -19 -769 0
-591 19 0
-591 769 0
592 -591 -781 0
-592 591 0
-592 781 0
593 -929 -590 0
-593 929 0
-593 590 0
594 -811 -26 0
-594 811 0
-594 26 0
595 -594 -754 0
-595 594 0
-595 754 0
596 -930 -593 0
-596 930 0
-596 593 0
597 -719 -8 0
-597 719 0
-597 8 0
598 -597 -43 0
-598 597 0
-598 43 0
599 -931 -596 0
-599 931 0
-599 596 0
600 -46 -28 0
-600 46 0
-600 28 0
601 -600 -726 0
-601 600 0
-601 726 0
602 -932 -599 0
-602 932 0
-602 599 0
603 -724 -11 0
-603 724 0
-603 11 0
604 -603 -12 0
-604 603 0
-604 12 0
605 -933 -602 0
-605 933 0
-605 602 0
606 -34 -16 0
-606 34 0
-606 16 0
607 -606 -724 0
-607 606 0
-607 724 0
608 -934 -605 0
-608 934 0
-608 605 0
609 -27 -15 0
-609 27 0
-609 15 0
610 -609 -791 0
-610 609 0
-610 791 0
611 -935 -608 0
-611 935 0
-611 608 0
612 -783 -712 0
-612 783 0
-612 712 0
613 -612 -799 0
-613 612 0
-613 799 0
614 -936 -611 0
-614 936 0
-614 611 0
615 -714 -736 0
-615 714 0
-615 736 0
616 -615 -44 0
-616 615 0
-616 44 0
617 -937 -614 0
-617 937 0
-617 614 0
618 -12 -734 0
-618 12 0
-618 734 0
619 -618 -840 0
-619 618 0
-619 840 0
620 -938 -617 0
-620 938 0
-620 617 0
621 -92 -17 0
-621 92 0
-621 17 0
622 -939 -620 0
-622 939 0
-622 620 0
623 -716 -23 0
-623 716 0
-623 23 0
624 -623 -11 0
-624 623 0
-624 11 0
625 -940 -622 0
-625 940 0
-625 622 0
626 -774 -30 0
-626 774 0
-626 30 0
627 -626 -781 0
-627 626 0
-627 781 0
628 -941 -625 0
-628 941 0
-628 625 0
629 -714 -10 0
-629 714 0
-629 10 0
630 -629 -766 0
-630 629 0
-630 766 0
631 -942 -628 0
-631 942 0
-631 628 0
632 -794 -731 0
-632 794 0
-632 731 0
633 -632 -767 0
-633 632 0
-633 767 0
634 -943 -631 0
-634 943 0
-634 631 0
635 -769 -10 0
-635 769 0
-635 10 0
636 -635 -722 0
-636 635 0
-636 722 0
637 -944 -634 0
-637 944 0
-637 634 0
638 -10 -4 0
-638 10 0
-638 4 0
639 -638 -41 0
-639 638 0
-639 41 0
640 -945 -637 0
-640 945 0
-640 637 0
641 -29 -7 0
-641 29 0
-641 7 0
642 -641 -702 0
-642 641 0
-642 702 0
643 -946 -640 0
-643 946 0
-643 640 0
644 -48 -729 0
-644 48 0
-644 729 0
645 -644 -10 0
-645 644 0
-645 10 0
646 -947 -643 0
-646 947 0
-646 643 0
647 -215 -731 0
-647 215 0
-647 731 0
648 -948 -646 0
-648 948 0
-648 646 0
649 -729 -753 0
-649 729 0
-649 753 0
650 -649 -751 0
-650 649 0
-650 751 0
651 -949 -648 0
-651 949 0
-651 648 0
652 -14 -704 0
-652 14 0
-652 704 0
653 -652 -2 0
-653 652 0
-653 2 0
654 -950 -651 0
-654 950 0
-654 651 0
655 -712 -698 0
-655 712 0
-655 698 0
656 -655 -28 0
-656 655 0
-656 28 0
657 -951 -654 0
-657 951 0
-657 654 0
658 -34 -14 0
-658 34 0
-658 14 0
659 -658 -43 0
-659 658 0
-659 43 0
660 -952 -657 0
-660 952 0
-660 657 0
661 -50 -49 0
-661 50 0
-661 49 0
662 -661 -731 0
-662 661 0
-662 731 0
663 -953 -660 0
-663 953 0
-663 660 0
664 -719 -4 0
-664 719 0
-664 4 0
665 -664 -18 0
-665 664 0
-665 18 0
666 -954 -663 0
-666 954 0
-666 663 0
667 -746 -799 0
-667 746 0
-667 799 0
668 -667 -41 0
-668 667 0
-668 41 0
669 -955 -666 0
-669 955 0
-669 666 0
670 -48 -27 0
-670 48 0
-670 27 0
671 -670 -801 0
-671 670 0
-671 801 0
672 -956 -669 0
-672 956 0
-672 669 0
673 -731 -729 0
-673 731 0
-673 729 0
674 -673 -3 0
-674 673 0
-674 3 0
675 -957 -672 0
-675 957 0
-675 672 0
676 -774 -714 0
-676 774 0
-676 714 0
677 -676 -704 0
-677 676 0
-677 704 0
678 -958 -675 0
-678 958 0
-678 675 0
679 -720 -706 0
-679 720 0
-679 706 0
680 -679 -50 0
-680 679 0
-680 50 0
681 -959 -678 0
-681 959 0
-681 678 0
682 -724 -717 0
-682 724 0
-682 717 0
683 -682 -711 0
-683 682 0
-683 711 0
684 -960 -681 0
-684 960 0
-684 681 0
685 -738 -18 0
-685 738 0
-685 18 0
686 -685 -726 0
-686 685 0
-686 726 0
687 -961 -684 0
-687 961 0
-687 684 0
688 -791 -24 0
-688 791 0
-688 24 0
689 -688 -3 0
-689 688 0
-689 3 0
690 -962 -687 0
-690 962 0
-690 687 0
691 -21 -13 0
-691 21 0
-691 13 0
692 -691 -11 0
-692 691 0
-692 11 0
693 -963 -690 0
-693 963 0
-693 690 0
694 -47 -712 0
-694 47 0
-694 712 0
695 -694 -794 0
-695 694 0
-695 794 0
696 -964 -693 0
-696 964 0
-696 693 0
-697 -4 0
697 4 0
-698 -6 0
698 6 0
-699 -54 0
699 54 0
-700 -52 0
700 52 0
-701 -7 0
701 7 0
-702 -9 0
702 9 0
-703 -57 0
703 57 0
-704 -12 0
704 12 0
-705 -60 0
705 60 0
-706 -14 0
706 14 0
-707 -63 0
707 63 0
-708 -17 0
708 17 0
-709 -18 0
709 18 0
-710 -66 0
710 66 0
-711 -20 0
711 20 0
-712 -19 0
712 19 0
-713 -69 0
713 69 0
-714 -22 0
714 22 0
-715 -72 0
715 72 0
-716 -24 0
716 24 0
-717 -23 0
717 23 0
-718 -75 0
718 75 0
-719 -25 0
719 25 0
-720 -26 0
720 26 0
-721 -78 0
721 78 0
-722 -28 0
722 28 0
-723 -81 0
723 81 0
-724 -29 0
724 29 0
-725 -84 0
725 84 0
-726 -8 0
726 8 0
-727 -87 0
727 87 0
-728 -90 0
728 90 0
-729 -31 0
729 31 0
-730 -93 0
730 93 0
-731 -33 0
731 33 0
-732 -96 0
732 96 0
-733 -34 0
733 34 0
-734 -1 0
734 1 0
-735 -99 0
735 99 0
-736 -13 0
736 13 0
-737 -102 0
737 102 0
-738 -35 0
738 35 0
-739 -105 0
739 105 0
-740 -108 0
740 108 0
-741 -111 0
741 111 0
-742 -114 0
742 114 0
-743 -117 0
743 117 0
-744 -120 0
744 120 0
-745 -16 0
745 16 0
-746 -40 0
746 40 0
-747 -123 0
747 123 0
-748 -126 0
748 126 0
-749 -129 0
749 129 0
-750 -132 0
750 132 0
-751 -5 0
751 5 0
-752 -135 0
752 135 0
-753 -27 0
753 27 0
-754 -42 0
754 42 0
-755 -138 0
755 138 0
-756 -38 0
756 38 0
-757 -141 0
757 141 0
-758 -2 0
758 2 0
-759 -144 0
759 144 0
-760 -147 0
760 147 0
-761 -150 0
761 150 0
-762 -153 0
762 153 0
-763 -21 0
763 21 0
-764 -156 0
764 156 0
-765 -159 0
765 159 0
-766 -41 0
766 41 0
-767 -44 0
767 44 0
-768 -162 0
768 162 0
-769 -11 0
769 11 0
-770 -165 0
770 165 0
-771 -168 0
771 168 0
-772 -171 0
772 171 0
-773 -174 0
773 174 0
-774 -48 0
774 48 0
-775 -177 0
775 177 0
-776 -180 0
776 180 0
-777 -183 0
777 183 0
-778 -186 0
778 186 0
-779 -189 0
779 189 0
-780 -192 0
780 192 0
-781 -43 0
781 43 0
-782 -195 0
782 195 0
-783 -45 0
783 45 0
-784 -15 0
784 15 0
-785 -198 0
785 198 0
-786 -201 0
786 201 0
-787 -204 0
787 204 0
-788 -207 0
788 207 0
-789 -210 0
789 210 0
-790 -213 0
790 213 0
-791 -30 0
791 30 0
-792 -216 0
792 216 0
-793 -219 0
793 219 0
-794 -36 0
794 36 0
-795 -222 0
795 222 0
-796 -225 0
796 225 0
-797 -228 0
797 228 0
-798 -230 0
798 230 0
-799 -32 0
799 32 0
-800 -233 0
800 233 0
-801 -3 0
801 3 0
-802 -236 0
802 236 0
-803 -239 0
803 239 0
-804 -39 0
804 39 0
-805 -242 0
805 242 0
-806 -245 0
806 245 0
-807 -248 0
807 248 0
-808 -251 0
808 251 0
-809 -254 0
809 254 0
-810 -257 0
810 257 0
-811 -37 0
811 37 0
-812 -10 0
812 10 0
-813 -260 0
813 260 0
-814 -263 0
814 263 0
-815 -266 0
815 266 0
-816 -269 0
816 269 0
-817 -272 0
817 272 0
-818 -275 0
818 275 0
-819 -278 0
819 278 0
-820 -281 0
820 281 0
-821 -284 0
821 284 0
-822 -287 0
822 287 0
-823 -290 0
823 290 0
-824 -293 0
824 293 0
-825 -295 0
825 295 0
-826 -298 0
826 298 0
-827 -301 0
827 301 0
-828 -304 0
828 304 0
-829 -307 0
829 307 0
-830 -46 0
830 46 0
-831 -310 0
831 310 0
-832 -313 0
832 313 0
-833 -316 0
833 316 0
-834 -319 0
834 319 0
-835 -322 0
835 322 0
-836 -325 0
836 325 0
-837 -328 0
837 328 0
-838 -49 0
838 49 0
-839 -331 0
839 331 0
-840 -50 0
840 50 0
-841 -334 0
841 334 0
-842 -47 0
842 47 0
-843 -337 0
843 337 0
-844 -340 0
844 340 0
-845 -343 0
845 343 0
-846 -346 0
846 346 0
-847 -349 0
847 349 0
-848 -352 0
848 352 0
-849 -355 0
849 355 0
-850 -358 0
850 358 0
-851 -361 0
851 361 0
-852 -364 0
852 364 0
-853 -367 0
853 367 0
-854 -370 0
854 370 0
-855 -373 0
855 373 0
-856 -376 0
856 376 0
-857 -379 0
857 379 0
-858 -381 0
858 381 0
-859 -384 0
859 384 0
-860 -387 0
860 387 0
-861 -390 0
861 390 0
-862 -393 0
862 393 0
-863 -396 0
863 396 0
-864 -398 0
864 398 0
-865 -401 0
865 401 0
-866 -404 0
866 404 0
-867 -407 0
867 407 0
-868 -410 0
868 410 0
-869 -413 0
869 413 0
-870 -416 0
870 416 0
-871 -419 0
871 419 0
-872 -422 0
872 422 0
-873 -425 0
873 425 0
-874 -428 0
874 428 0
-875 -431 0
875 431 0
-876 -434 0
876 434 0
-877 -437 0
877 437 0
-878 -440 0
878 440 0
-879 -443 0
879 443 0
-880 -446 0
880 446 0
-881 -449 0
881 449 0
-882 -451 0
882 451 0
-883 -454 0
883 454 0
-884 -457 0
884 457 0
-885 -460 0
885 460 0
-886 -463 0
886 463 0
-887 -466 0
887 466 0
-888 -469 0
888 469 0
-889 -472 0
889 472 0
-890 -475 0
890 475 0
-891 -478 0
891 478 0
-892 -481 0
892 481 0
-893 -484 0
893 484 0
-894 -487 0
894 487 0
-895 -490 0
895 490 0
-896 -493 0
896 493 0
-897 -496 0
897 496 0
-898 -499 0
898 499 0
-899 -502 0
899 502 0
-900 -505 0
900 505 0
-901 -508 0
901 508 0
-902 -511 0
902 511 0
-903 -514 0
903 514 0
-904 -517 0
904 517 0
-905 -520 0
905 520 0
-906 -523 0
906 523 0
-907 -526 0
907 526 0
-908 -529 0
908 529 0
-909 -532 0
909 532 0
-910 -535 0
910 535 0
-911 -538 0
911 538 0
-912 -541 0
912 541 0
-913 -544 0
913 544 0
-914 -547 0
914 547 0
-915 -550 0
915 550 0
-916 -553 0
916 553 0
-917 -556 0
917 556 0
-918 -559 0
918 559 0
-919 -562 0
919 562 0
-920 -565 0
920 565 0
-921 -568 0
921 568 0
-922 -571 0
922 571 0
-923 -574 0
923 574 0
-924 -577 0
924 577 0
-925 -580 0
925 580 0
-926 -583 0
926 583 0
-927 -586 0
927 586 0
-928 -589 0
928 589 0
-929 -592 0
929 592 0
-930 -595 0
930 595 0
-931 -598 0
931 598 0
-932 -601 0
932 601 0
-933 -604 0
933 604 0
-934 -607 0
934 607 0
-935 -610 0
935 610 0
-936 -613 0
936 613 0
-937 -616 0
937 616 0
-938 -619 0
938 619 0
-939 -621 0
939 621 0
-940 -624 0
940 624 0
-941 -627 0
941 627 0
-942 -630 0
942 630 0
-943 -633 0
943 633 0
-944 -636 0
944 636 0
-945 -639 0
945 639 0
-946 -642 0
946 642 0
-947 -645 0
947 645 0
-948 -647 0
948 647 0
-949 -650 0
949 650 0
-950 -653 0
950 653 0
-951 -656 0
951 656 0
-952 -659 0
952 659 0
-953 -662 0
953 662 0
-954 -665 0
954 665 0
-955 -668 0
955 668 0
-956 -671 0
956 671 0
-957 -674 0
957 674 0
-958 -677 0
958 677 0
-959 -680 0
959 680 0
-960 -683 0
960 683 0
-961 -686 0
961 686 0
-962 -689 0
962 689 0
-963 -692 0
963 692 0
-964 -695 0
964 695 0
696 0
